c read Graph
c width = 387
c time = 498 ms
c width = 29
c time = 1416 ms
c width = 28
c time = 1830 ms
c width = 26
c time = 2344 ms
c width = 25
c time = 8894 ms
c width = 24
c time = 16349 ms
c width = 23
c time = 28423 ms
c width = 22
c time = 38884 ms
c width = 21
c time = 50957 ms
c width = 20
c time = 69294 ms
c width = 20
c time = 71524 ms
s td 346 21 400
b 1 1 2 21
b 2 2 3 21 22
b 3 18 19 39 40
b 4 3 21 22 41
b 5 18 39 40 60
b 6 341 361 362 382
b 7 360 379 380 399
b 8 341 362 382 383
b 9 360 379 398 399
b 10 3 4 5 24
b 11 3 5 23 24 42 61
b 12 5 23 24 42 44 61 63
b 13 5 24 42 44 61 63 82
b 14 5 24 44 61 63 82 101
b 15 5 24 26 44 45 63 82 101
b 16 5 26 44 45 63 65 82 84 101
b 17 5 26 45 63 65 82 84 101 103
b 18 5 26 45 65 82 84 101 103 122
b 19 5 26 45 47 65 66 84 101 103 122
b 20 26 45 46 47 66
b 21 5 26 47 65 66 84 87 101 103 107 122 124 126 145
b 22 65 66 84 87 103 105 107 124 126 145
b 23 84 103 104 105 124
b 24 65 66 84 86 87 105 107 126
b 25 65 84 85 86 105
b 26 86 105 106 107 126
b 27 105 124 125 126 145
b 28 5 26 47 66 68 87 101 103 107 122 124 126 145
b 29 47 66 67 68 87
b 30 5 9 26 30 47 49 68 87 101 103 107 122 124 126 145
b 31 5 9 26 28 30 47 49 68
b 32 28 47 48 49 68
b 33 5 7 9 26 28 47
b 34 5 6 7 26
b 35 7 8 9 28
b 36 7 26 27 28 47
b 37 9 28 29 30 49
b 38 9 30 49 68 87 101 103 107 122 124 126 145 164 181 183 202
b 39 101 103 122 124 143 145 164 181 183 202
b 40 124 143 144 145 164
b 41 103 122 123 124 143
b 42 101 122 143 162 164 181 183 202
b 43 162 181 182 183 202
b 44 101 122 141 143 162 181
b 45 101 121 122 141
b 46 141 161 162 181
b 47 122 141 142 143 162
b 48 143 162 163 164 183
b 49 9 30 49 51 68 72 87 93 107 112 126 128 129 131 145 150 164 181 183 202
b 50 30 49 51 68 72 87 93 107 110 112 128 129 131 150
b 51 30 49 51 68 72 87 89 93 107 110 112 128 129 131
b 52 68 87 89 107 108 110 128 129
b 53 68 87 88 89 108
b 54 89 108 109 110 129
b 55 30 49 51 68 72 89 91 93 110 112 131
b 56 91 110 111 112 131
b 57 30 49 51 68 70 72 89 91 110
b 58 49 68 69 70 89
b 59 30 49 50 51 70
b 60 51 70 71 72 91
b 61 70 89 90 91 110
b 62 72 91 92 93 112
b 63 110 129 130 131 150
b 64 9 30 51 72 93 107 112 126 127 128 129 131 145 150 164 181 183 202
b 65 9 30 51 72 93 112 126 127 128 129 131 145 147 150 164 166 181 183 202
b 66 126 145 146 147 166
b 67 9 30 51 72 93 112 128 129 131 145 147 150 164 166 170 181 183 187 189 202 208
b 68 128 129 147 150 166 168 170 187 189 208
b 69 147 166 167 168 187
b 70 168 187 188 189 208
b 71 128 129 147 149 150 168 170 189
b 72 149 168 169 170 189
b 73 128 147 148 149 168
b 74 9 30 51 72 93 112 131 145 150 164 166 170 181 183 187 189 202 204 206 208 225
b 75 9 30 51 72 93 112 131 150 166 170 181 183 187 189 202 204 206 208 223 225 244
b 76 204 206 208 223 224 225 244
b 77 183 202 203 204 223
b 78 9 30 51 72 93 112 131 150 170 181 187 189 202 206 208 223 225 244 261 263 282
b 79 9 30 51 72 93 112 131 150 170 187 189 206 208 225 228 244 246 247 261 263 282
b 80 9 30 51 72 93 112 131 150 170 189 208 225 228 244 246 247 261 263 265 282
b 81 9 30 51 72 93 112 131 150 170 189 208 228 244 246 247 261 263 265 282 284
b 82 244 263 264 265 284
b 83 9 30 51 72 93 112 131 150 170 189 208 228 246 247 261 263 265 282 283 284
b 84 9 30 51 72 93 112 131 150 170 189 208 228 246 247 261 265 282 283 284 303
b 85 9 30 51 72 93 112 131 150 170 189 208 228 246 247 261 265 282 284 303 322 341
b 86 9 30 51 72 93 112 131 150 170 189 208 228 246 247 265 284 285 303 304 322 341
b 87 9 30 51 72 93 112 131 150 170 189 208 228 246 247 265 285 303 304 322 323 341
b 88 9 30 51 72 93 112 131 150 170 189 208 228 246 247 265 285 304 322 323 341 342
b 89 9 30 51 72 93 112 131 150 170 189 208 228 246 247 265 266 285 304 323 341 342
b 90 9 30 51 72 93 112 131 150 170 189 208 228 247 266 285 304 323 324 341 342 343
b 91 9 30 51 72 93 112 131 150 170 189 208 228 247 266 285 304 324 341 342 343 362
b 92 9 30 51 72 93 112 131 150 170 189 208 228 247 266 285 304 324 341 343 362 383
b 93 9 30 51 72 93 112 131 150 170 189 208 228 247 266 285 304 324 343 362 363 383
b 94 9 30 51 72 93 112 131 150 170 189 208 228 247 266 285 304 324 343 344 363 383
b 95 9 30 51 72 93 112 131 150 170 189 208 228 247 266 285 304 324 325 344 363 383
b 96 9 30 51 72 93 112 131 150 170 189 208 228 247 266 285 304 306 325 344 363 383
b 97 9 30 51 72 93 112 131 150 170 189 208 228 247 266 285 306 325 344 363 364 383
b 98 9 30 51 72 93 112 131 150 170 189 208 228 247 266 285 306 325 344 364 383 384
b 99 9 30 51 72 93 112 131 150 170 189 208 228 247 266 285 306 325 344 364 365 384
b 100 9 30 51 72 93 112 131 150 170 189 208 228 247 266 285 306 325 344 346 365 384
b 101 9 30 51 72 93 112 131 150 170 189 208 228 247 266 285 306 325 327 346 365 384
b 102 306 325 326 327 346
b 103 9 30 51 72 93 112 131 150 170 189 208 228 247 266 285 287 306 327 346 365 384
b 104 266 285 287 306 327 346 365 384
b 105 9 30 51 72 93 112 131 150 170 189 208 228 247 266 268 287 306 327 346 365 384
b 106 9 30 51 72 93 112 131 150 170 189 208 228 247 249 268 287 306 327 346 365 384
b 107 228 247 248 249 268
b 108 9 30 51 72 93 112 131 150 170 189 208 228 249 268 287 306 308 327 346 365 384
b 109 9 30 51 72 93 112 131 150 170 189 208 228 249 268 287 289 308 327 346 365 384
b 110 9 30 51 72 93 112 131 150 170 189 208 228 249 268 269 289 308 327 346 365 384
b 111 9 30 51 72 93 112 131 150 170 189 208 228 249 269 270 289 308 327 346 365 384
b 112 9 30 51 72 93 112 131 150 170 189 208 209 228 249 270 289 308 327 346 365 384
b 113 9 30 51 72 93 112 131 150 170 189 209 228 230 249 270 289 308 327 346 365 384
b 114 9 30 51 72 93 112 131 150 170 189 209 230 249 251 270 289 308 327 346 365 384
b 115 9 30 51 72 93 112 131 150 170 189 209 210 230 251 270 289 308 327 346 365 384
b 116 9 30 51 72 93 112 131 150 170 189 210 230 231 251 270 289 308 327 346 365 384
b 117 9 30 51 72 93 112 131 150 170 189 191 210 231 251 270 289 308 327 346 365 384
b 118 9 30 51 72 93 112 131 150 151 170 191 210 231 251 270 289 308 327 346 365 384
b 119 9 30 51 72 93 112 131 132 151 170 191 210 231 251 270 289 308 327 346 365 384
b 120 9 30 51 72 93 112 132 151 170 171 191 210 231 251 270 289 308 327 346 365 384
b 121 9 30 51 72 93 112 132 151 152 171 191 210 231 251 270 289 308 327 346 365 384
b 122 9 30 51 72 93 112 132 133 152 171 191 210 231 251 270 289 308 327 346 365 384
b 123 9 30 51 72 93 112 114 133 152 171 191 210 231 251 270 289 308 327 346 365 384
b 124 93 112 113 114 133
b 125 9 30 51 72 93 114 133 152 171 191 210 212 231 251 270 289 308 327 346 365 384
b 126 9 30 51 72 93 114 133 152 171 191 192 212 231 251 270 289 308 327 346 365 384
b 127 9 30 51 72 93 114 133 152 171 173 192 212 231 251 270 289 308 327 346 365 384
b 128 152 171 173 192 212 231 251 270 289 308 327 346 365 384
b 129 9 30 51 72 93 114 133 152 154 173 192 212 231 251 270 289 308 327 346 365 384
b 130 9 30 51 72 93 114 133 135 154 173 192 212 231 251 270 289 308 327 346 365 384
b 131 114 133 134 135 154
b 132 9 30 51 72 93 114 135 154 173 192 212 231 251 270 289 308 327 346 365 384 386
b 133 9 30 51 72 93 114 135 154 173 192 212 231 251 270 289 308 327 346 365 367 386
b 134 9 30 51 72 93 114 135 154 173 192 212 231 251 270 289 308 327 346 367 386 388
b 135 9 30 51 72 93 114 135 154 173 192 212 231 251 270 289 308 327 346 347 367 388
b 136 9 30 51 72 93 114 135 154 173 192 212 231 251 270 289 308 327 347 367 368 388
b 137 9 30 51 72 93 114 135 154 173 192 212 231 251 270 289 308 327 347 348 368 388
b 138 9 30 51 72 93 114 135 154 173 192 212 231 251 270 289 308 327 348 368 369 388
b 139 9 30 51 72 93 114 135 154 173 192 212 231 251 270 289 308 327 328 348 369 388
b 140 9 30 51 72 93 114 135 154 173 192 212 231 251 270 289 308 328 329 348 369 388
b 141 9 30 51 72 93 114 135 154 173 192 212 231 251 270 289 308 309 329 348 369 388
b 142 9 30 51 72 93 114 135 154 173 192 212 231 251 270 289 309 310 329 348 369 388
b 143 9 30 51 72 93 114 135 154 173 192 212 231 251 270 289 290 310 329 348 369 388
b 144 9 30 51 72 93 114 135 154 173 192 212 231 251 270 290 291 310 329 348 369 388
b 145 9 30 51 72 93 114 135 154 173 192 212 231 251 270 271 291 310 329 348 369 388
b 146 9 30 51 72 93 114 135 154 173 192 212 231 251 271 272 291 310 329 348 369 388
b 147 9 30 51 72 93 114 135 154 173 192 212 231 251 252 272 291 310 329 348 369 388
b 148 9 30 51 72 93 114 135 154 173 192 212 231 232 252 272 291 310 329 348 369 388
b 149 9 30 51 72 93 114 135 154 173 192 212 232 233 252 272 291 310 329 348 369 388
b 150 9 30 51 72 93 114 135 154 173 192 212 213 233 252 272 291 310 329 348 369 388
b 151 9 30 51 72 93 114 135 154 173 192 193 213 233 252 272 291 310 329 348 369 388
b 152 9 30 51 72 93 114 135 154 173 193 194 213 233 252 272 291 310 329 348 369 388
b 153 9 30 51 72 93 114 135 154 173 175 194 213 233 252 272 291 310 329 348 369 388
b 154 9 30 51 72 93 114 135 154 156 175 194 213 233 252 272 291 310 329 348 369 388
b 155 135 154 155 156 175
b 156 9 30 51 72 93 114 135 156 175 194 213 233 252 272 291 310 329 348 350 369 388
b 157 9 30 51 72 93 114 135 156 175 194 213 233 252 272 291 310 329 331 350 369 388
b 158 9 30 51 72 93 114 135 156 175 194 213 233 252 272 291 310 312 331 350 369 388
b 159 9 30 51 72 93 114 135 156 175 194 213 233 252 272 291 292 312 331 350 369 388
b 160 9 30 51 72 93 114 135 156 175 194 213 233 252 272 292 293 312 331 350 369 388
b 161 9 30 51 72 93 114 135 156 175 194 213 233 252 272 273 293 312 331 350 369 388
b 162 9 11 30 51 72 93 114 135 156 175 194 213 233 252 273 293 312 331 350 369 388
b 163 11 30 32 51 72 93 114 135 156 175 194 213 233 252 273 293 312 331 350 369 388
b 164 11 13 32 51 72 93 114 135 156 175 194 213 233 252 273 293 312 331 350 369 388
b 165 13 32 51 53 72 93 114 135 156 175 194 213 233 252 273 293 312 331 350 369 388
b 166 13 32 34 53 72 93 114 135 156 175 194 213 233 252 273 293 312 331 350 369 388
b 167 13 32 33 34 53
b 168 13 15 34 53 72 93 114 135 156 175 194 213 233 252 273 293 312 331 350 369 388
b 169 15 34 53 72 73 93 114 135 156 175 194 213 233 252 273 293 312 331 350 369 388
b 170 15 34 53 73 74 93 114 135 156 175 194 213 233 252 273 293 312 331 350 369 388
b 171 15 34 53 55 74 93 114 135 156 175 194 213 233 252 273 293 312 331 350 369 388
b 172 15 34 36 55 74 93 114 135 156 175 194 213 233 252 273 293 312 331 350 369 388
b 173 15 17 36 55 74 93 114 135 156 175 194 213 233 252 273 293 312 331 350 369 388
b 174 15 16 17 36
b 175 17 36 55 74 93 95 114 135 156 175 194 213 233 252 273 293 312 331 350 369 388
b 176 17 36 55 74 75 95 114 135 156 175 194 213 233 252 273 293 312 331 350 369 388
b 177 17 36 55 75 76 95 114 135 156 175 194 213 233 252 273 293 312 331 350 369 388
b 178 17 36 55 76 95 114 116 135 156 175 194 213 233 252 273 293 312 331 350 369 388
b 179 17 36 55 76 95 97 116 135 156 175 194 213 233 252 273 293 312 331 350 369 388
b 180 76 95 96 97 116
b 181 17 36 55 57 76 97 116 135 156 175 194 213 233 252 273 293 312 331 350 369 388
b 182 17 36 57 76 78 97 116 135 156 175 194 213 233 252 273 293 312 331 350 369 388
b 183 17 36 57 78 97 116 135 137 156 175 194 213 233 252 273 293 312 331 350 369 388
b 184 17 36 57 78 97 116 118 137 156 175 194 213 233 252 273 293 312 331 350 369 388
b 185 17 36 57 78 97 99 118 137 156 175 194 213 233 252 273 293 312 331 350 369 388
b 186 17 36 57 78 99 118 120 137 156 175 194 213 233 252 273 293 312 331 350 369 388
b 187 99 118 120 137 156 158 175 179 194 200 213 233 252 273 293 312 331 350 369 388
b 188 137 156 157 158 175 179 194 200 213 233 252 273 293 312 331 350 369 388
b 189 99 118 120 137 139 158 179 200
b 190 99 118 119 120 139
b 191 118 137 138 139 158
b 192 120 139 158 160 179 200
b 193 139 158 159 160 179
b 194 160 179 180 200
b 195 120 139 140 160
b 196 17 36 57 78 80 99 120
b 197 80 99 100 120
b 198 17 36 57 59 78 80 99
b 199 17 36 38 57 59 78 80
b 200 17 38 59 60 80
b 201 17 18 38 59 60
b 202 18 38 39 59 60
b 203 38 57 58 59 78
b 204 17 36 37 38 57
b 205 59 78 79 80 99
b 206 78 97 98 99 118
b 207 97 116 117 118 137
b 208 116 135 136 137 156
b 209 57 76 77 78 97
b 210 36 55 56 57 76
b 211 95 114 115 116 135
b 212 74 93 94 95 114
b 213 15 34 35 36 55
b 214 34 53 54 55 74
b 215 13 14 15 34
b 216 32 51 52 53 72
b 217 11 12 13 32
b 218 11 30 31 32 51
b 219 9 10 11 30
b 220 291 310 311 312 331
b 221 310 329 330 331 350
b 222 329 348 349 350 369
b 223 154 173 174 175 194
b 224 367 386 387 388
b 225 346 365 366 367 386
b 226 365 384 385 386
b 227 133 152 153 154 173
b 228 152 171 172 173 192
b 229 191 210 211 212 231
b 230 170 189 190 191 210
b 231 230 249 250 251 270
b 232 209 228 229 230 249
b 233 268 287 288 289 308
b 234 287 306 307 308 327 346 365 384
b 235 247 266 267 268 287
b 236 266 285 286 287 306
b 237 325 344 345 346 365
b 238 285 304 305 306 325
b 239 261 282 301 303 322 341
b 240 282 301 302 303 322
b 241 261 281 282 301
b 242 301 321 322 341
b 243 225 244 245 246 265
b 244 187 206 208 225 227 228 246 247
b 245 206 225 226 227 246
b 246 187 206 207 208 227
b 247 181 202 223 242 244 261 263 282
b 248 242 261 262 263 282
b 249 181 202 221 223 242 261
b 250 181 201 202 221
b 251 202 221 222 223 242
b 252 221 241 242 261
b 253 223 242 243 244 263
b 254 145 164 166 183 185 187 204 206 225
b 255 145 164 165 166 185
b 256 166 185 186 187 206
b 257 185 204 205 206 225
b 258 164 183 184 185 204
b 259 82 101 102 103 122
b 260 63 82 83 84 103
b 261 44 63 64 65 84
b 262 5 24 25 26 45
b 263 61 81 82 101
b 264 42 61 62 63 82
b 265 23 42 43 44 63
b 266 3 23 41 42 61
b 267 3 22 23 41 42
b 268 156 157 158 175 179 194 200 213 233 252 254 273 293 312 331 350 369 388
b 269 156 157 158 175 177 179 194 198 215 217 236
b 270 156 157 158 175 179 194 198 200 213 215 217 233 236 254 273 293 312 331 350 369 388
b 271 179 194 198 200 213 215 217 233 236 254 257 273 275 276 293 312 331 350 369 388
b 272 233 252 253 254 273
b 273 158 177 178 179 198
b 274 179 198 200 217 236 254 257 259 273 275 276 278 280 293 312 331 350 369 388
b 275 254 257 259 273 275 276 278 280 293 312 314 331 335 350 354 369 373 388 392
b 276 254 257 259 273 275 276 278 280 293 297 314 335 354 373 392
b 277 257 276 277 278 297
b 278 254 259 273 275 276 278 280 293 297 314 317 335 336 354 373 392
b 279 254 273 275 276 293 294 297 314 317 335 336
b 280 275 276 294 296 297 314 317 335 336
b 281 275 294 296 314 315 317 335 336
b 282 275 294 295 296 315
b 283 296 315 316 317 336
b 284 254 273 274 275 294
b 285 259 278 280 297 317 335 336 338 339 354 360 373 392
b 286 259 278 280 297 317 318 338 339 360
b 287 259 278 280 297 299 318 339 360
b 288 259 278 279 280 299
b 289 280 299 318 320 339 360
b 290 299 318 319 320 339
b 291 280 299 300 320
b 292 320 339 340 360
b 293 278 297 298 299 318
b 294 317 335 336 338 339 354 360 373 375 392 396
b 295 354 373 375 392 394 396
b 296 354 373 374 375 394
b 297 373 392 393 394
b 298 375 394 395 396
b 299 317 335 336 338 339 354 356 360 375 396
b 300 335 354 355 356 375
b 301 317 336 338 339 356 357 360 375 396
b 302 317 336 337 338 357
b 303 338 339 356 357 360 375 377 396
b 304 338 339 357 359 360 377 396
b 305 338 357 359 360 377 378 396
b 306 359 360 377 378 396 398
b 307 377 396 397 398
b 308 359 360 378 379 398
b 309 338 357 358 359 378
b 310 356 375 376 377 396
b 311 293 312 314 331 335 350 352 354 369 373 388 392
b 312 331 350 352 369 371 373 388 392
b 313 352 371 372 373 392
b 314 331 350 351 352 371
b 315 350 369 371 388 390 392
b 316 369 388 389 390
b 317 371 390 391 392
b 318 350 369 370 371 390
b 319 293 312 314 331 333 335 352 354 373
b 320 314 333 334 335 354
b 321 333 352 353 354 373
b 322 312 331 332 333 352
b 323 293 312 313 314 333
b 324 179 198 200 217 236 238 257 259 278 280
b 325 179 198 200 217 219 238 259 280
b 326 179 198 199 200 219
b 327 200 219 238 240 259 280
b 328 200 219 220 240
b 329 240 259 260 280
b 330 219 238 239 240 259
b 331 198 217 218 219 238
b 332 238 257 258 259 278
b 333 217 236 237 238 257
b 334 194 213 215 233 236 254 255 257 275 276
b 335 236 255 256 257 276
b 336 194 213 215 233 234 236 254 255
b 337 194 213 214 215 234
b 338 215 234 235 236 255
b 339 156 175 177 194 196 198 215 217 236
b 340 196 215 216 217 236
b 341 175 194 195 196 215
b 342 156 175 176 177 196
b 343 177 196 197 198 217
b 344 380 399 400
b 345 361 381 382
b 346 19 20 40
1 2
2 4
3 346
3 5
4 267
5 202
6 345
6 8
7 344
7 9
8 92
9 308
10 11
11 266
11 12
12 265
12 13
13 264
13 14
14 263
14 15
15 262
15 16
16 261
16 17
17 260
17 18
18 259
18 19
19 21
19 20
21 28
21 22
22 23
22 27
22 24
24 25
24 26
28 30
28 29
30 38
30 31
31 37
31 32
31 33
33 35
33 36
33 34
38 49
38 39
39 40
39 41
39 42
42 44
42 48
42 43
44 46
44 47
44 45
49 64
49 50
50 63
50 51
51 52
51 55
52 53
52 54
55 56
55 57
55 62
57 59
57 60
57 61
57 58
64 65
65 67
65 66
67 74
67 68
68 71
68 70
68 69
71 72
71 73
74 254
74 75
75 78
75 77
75 76
78 247
78 79
79 244
79 80
80 243
80 81
81 83
81 82
83 84
84 85
85 239
85 86
86 87
87 88
88 89
89 90
90 91
91 92
92 93
93 94
94 95
95 96
96 238
96 97
97 98
98 99
99 100
100 237
100 101
101 103
101 102
103 236
103 105
103 104
105 235
105 106
106 108
106 107
108 109
108 234
109 233
109 110
110 111
111 112
112 113
113 232
113 114
114 231
114 115
115 116
116 117
117 230
117 118
118 119
119 120
120 121
121 122
122 123
123 125
123 124
125 229
125 126
126 127
127 228
127 129
127 128
129 227
129 130
130 132
130 131
132 226
132 133
133 225
133 134
134 224
134 135
135 136
136 137
137 138
138 139
139 140
140 141
141 142
142 143
143 144
144 145
145 146
146 147
147 148
148 149
149 150
150 151
151 152
152 153
153 223
153 154
154 156
154 155
156 222
156 157
157 221
157 158
158 220
158 159
159 160
160 161
161 162
162 219
162 163
163 218
163 164
164 217
164 165
165 216
165 166
166 168
166 167
168 215
168 169
169 170
170 171
171 214
171 172
172 213
172 173
173 175
173 174
175 212
175 176
176 177
177 178
178 211
178 179
179 181
179 180
181 210
181 182
182 209
182 183
183 208
183 184
184 207
184 185
185 206
185 186
186 196
186 187
187 188
187 189
188 268
189 190
189 191
189 192
192 195
192 193
192 194
196 198
196 197
198 199
198 205
199 203
199 204
199 200
200 201
201 202
239 242
239 241
239 240
244 245
244 246
247 248
247 249
247 253
249 250
249 251
249 252
254 255
254 256
254 257
254 258
266 267
268 272
268 270
269 273
269 339
269 270
270 271
271 274
271 334
274 275
274 324
275 276
275 311
276 277
276 278
278 279
278 285
279 284
279 280
280 281
281 282
281 283
285 286
285 294
286 287
287 288
287 293
287 289
289 291
289 292
289 290
294 295
294 299
295 297
295 298
295 296
299 300
299 301
301 302
301 303
303 310
303 304
304 305
305 309
305 306
306 308
306 307
311 312
311 319
312 314
312 315
312 313
315 316
315 317
315 318
319 321
319 322
319 323
319 320
324 333
324 332
324 325
325 326
325 331
325 327
327 328
327 329
327 330
334 335
334 336
336 337
336 338
339 342
339 343
339 341
339 340
